100 151898
28 54 50 65 82 7 100 85 57 80 33 39 38 58 5 79 69 66 2 97 12 36 26 48 45 74 83 34 23 3 27 95 6 49 29 9 51 13 30 89 81 1 46 18 91 99 56 44 68 96 72 64 70 76 84 71 93 77 87 63 98 41 19 24 8 52 60 10 75 42 37 22 67 88 25 43 55 47 20 61 78 92 40 11 35 15 59 73 86 16 31 17 62 4 14 90 53 94 21 32 
